p cnf 200 1110
-101 60 0
-101 68 0
-101 -8 0
-101 -93 0
-101 -51 0
-101 -87 0
-101 84 0
-101 5 0
-101 74 0
-101 -59 0
101 -60 -68 8 93 51 87 -84 -5 -74 59 0
-102 -45 0
-102 81 0
-102 34 0
-102 46 0
-102 -51 0
-102 24 0
-102 -71 0
-102 4 0
-102 -54 0
-102 48 0
102 45 -81 -34 -46 51 -24 71 -4 54 -48 0
-103 -94 0
-103 86 0
-103 -87 0
-103 31 0
-103 93 0
-103 20 0
-103 -84 0
-103 16 0
-103 -88 0
-103 4 0
103 94 -86 87 -31 -93 -20 84 -16 88 -4 0
-104 -99 0
-104 -32 0
-104 64 0
-104 52 0
-104 69 0
-104 71 0
-104 25 0
-104 -92 0
-104 12 0
-104 -34 0
104 99 32 -64 -52 -69 -71 -25 92 -12 34 0
-105 17 0
-105 -86 0
-105 -87 0
-105 -65 0
-105 -51 0
-105 63 0
-105 -10 0
-105 -52 0
-105 -47 0
-105 33 0
105 -17 86 87 65 51 -63 10 52 47 -33 0
-106 24 0
-106 44 0
-106 6 0
-106 -9 0
-106 -91 0
-106 56 0
-106 -64 0
-106 36 0
-106 -52 0
-106 5 0
106 -24 -44 -6 9 91 -56 64 -36 52 -5 0
-107 12 0
-107 59 0
-107 -1 0
-107 -28 0
-107 -100 0
-107 93 0
-107 -16 0
-107 53 0
-107 -15 0
-107 34 0
107 -12 -59 1 28 100 -93 16 -53 15 -34 0
-108 -75 0
-108 88 0
-108 72 0
-108 -91 0
-108 40 0
-108 80 0
-108 -74 0
-108 -21 0
-108 100 0
-108 -32 0
108 75 -88 -72 91 -40 -80 74 21 -100 32 0
-109 -31 0
-109 36 0
-109 -93 0
-109 -43 0
-109 -83 0
-109 74 0
-109 97 0
-109 25 0
-109 55 0
-109 -90 0
109 31 -36 93 43 83 -74 -97 -25 -55 90 0
-110 -10 0
-110 -46 0
-110 -33 0
-110 -17 0
-110 26 0
-110 80 0
-110 36 0
-110 88 0
-110 -30 0
-110 78 0
110 10 46 33 17 -26 -80 -36 -88 30 -78 0
101 102 103 104 105 106 107 108 109 110 0
-111 -42 0
-111 92 0
-111 -93 0
-111 98 0
-111 -2 0
-111 -13 0
-111 -46 0
-111 -12 0
-111 57 0
-111 58 0
111 42 -92 93 -98 2 13 46 12 -57 -58 0
-112 31 0
-112 13 0
-112 -61 0
-112 -69 0
-112 -6 0
-112 -56 0
-112 -34 0
-112 63 0
-112 -30 0
-112 -54 0
112 -31 -13 61 69 6 56 34 -63 30 54 0
-113 -98 0
-113 17 0
-113 51 0
-113 -75 0
-113 -32 0
-113 85 0
-113 64 0
-113 -88 0
-113 39 0
-113 23 0
113 98 -17 -51 75 32 -85 -64 88 -39 -23 0
-114 35 0
-114 20 0
-114 21 0
-114 22 0
-114 -69 0
-114 -38 0
-114 83 0
-114 86 0
-114 52 0
-114 90 0
114 -35 -20 -21 -22 69 38 -83 -86 -52 -90 0
-115 57 0
-115 -6 0
-115 -39 0
-115 89 0
-115 72 0
-115 77 0
-115 -45 0
-115 -31 0
-115 29 0
-115 10 0
115 -57 6 39 -89 -72 -77 45 31 -29 -10 0
-116 79 0
-116 -88 0
-116 33 0
-116 -69 0
-116 93 0
-116 9 0
-116 12 0
-116 13 0
-116 -45 0
-116 -6 0
116 -79 88 -33 69 -93 -9 -12 -13 45 6 0
-117 -48 0
-117 42 0
-117 -45 0
-117 7 0
-117 -53 0
-117 30 0
-117 52 0
-117 25 0
-117 68 0
-117 -26 0
117 48 -42 45 -7 53 -30 -52 -25 -68 26 0
-118 77 0
-118 76 0
-118 10 0
-118 35 0
-118 85 0
-118 -64 0
-118 -67 0
-118 59 0
-118 -51 0
-118 -38 0
118 -77 -76 -10 -35 -85 64 67 -59 51 38 0
-119 61 0
-119 -87 0
-119 -47 0
-119 17 0
-119 84 0
-119 36 0
-119 21 0
-119 63 0
-119 -49 0
-119 100 0
119 -61 87 47 -17 -84 -36 -21 -63 49 -100 0
-120 -21 0
-120 75 0
-120 93 0
-120 -35 0
-120 98 0
-120 2 0
-120 13 0
-120 24 0
-120 25 0
-120 76 0
120 21 -75 -93 35 -98 -2 -13 -24 -25 -76 0
111 112 113 114 115 116 117 118 119 120 0
-121 90 0
-121 19 0
-121 -21 0
-121 39 0
-121 97 0
-121 34 0
-121 -75 0
-121 61 0
-121 -80 0
-121 -76 0
121 -90 -19 21 -39 -97 -34 75 -61 80 76 0
-122 -78 0
-122 -39 0
-122 -79 0
-122 -96 0
-122 -40 0
-122 42 0
-122 -7 0
-122 74 0
-122 -84 0
-122 27 0
122 78 39 79 96 40 -42 7 -74 84 -27 0
-123 98 0
-123 -20 0
-123 10 0
-123 -33 0
-123 75 0
-123 54 0
-123 85 0
-123 -14 0
-123 -73 0
-123 -40 0
123 -98 20 -10 33 -75 -54 -85 14 73 40 0
-124 -10 0
-124 16 0
-124 -39 0
-124 12 0
-124 84 0
-124 -69 0
-124 -7 0
-124 -26 0
-124 20 0
-124 29 0
124 10 -16 39 -12 -84 69 7 26 -20 -29 0
-125 -48 0
-125 -94 0
-125 -35 0
-125 60 0
-125 29 0
-125 -66 0
-125 -49 0
-125 -63 0
-125 -18 0
-125 -2 0
125 48 94 35 -60 -29 66 49 63 18 2 0
-126 58 0
-126 5 0
-126 31 0
-126 45 0
-126 1 0
-126 72 0
-126 42 0
-126 79 0
-126 -46 0
-126 -99 0
126 -58 -5 -31 -45 -1 -72 -42 -79 46 99 0
-127 -56 0
-127 34 0
-127 -5 0
-127 -62 0
-127 52 0
-127 -23 0
-127 -2 0
-127 -75 0
-127 -36 0
-127 44 0
127 56 -34 5 62 -52 23 2 75 36 -44 0
-128 -36 0
-128 93 0
-128 45 0
-128 49 0
-128 20 0
-128 41 0
-128 -88 0
-128 -85 0
-128 -25 0
-128 35 0
128 36 -93 -45 -49 -20 -41 88 85 25 -35 0
-129 -81 0
-129 51 0
-129 -39 0
-129 67 0
-129 46 0
-129 83 0
-129 -70 0
-129 6 0
-129 -50 0
-129 -13 0
129 81 -51 39 -67 -46 -83 70 -6 50 13 0
-130 -1 0
-130 -12 0
-130 -99 0
-130 -34 0
-130 93 0
-130 16 0
-130 -97 0
-130 47 0
-130 30 0
-130 -61 0
130 1 12 99 34 -93 -16 97 -47 -30 61 0
121 122 123 124 125 126 127 128 129 130 0
-131 34 0
-131 -54 0
-131 38 0
-131 -100 0
-131 94 0
-131 50 0
-131 36 0
-131 99 0
-131 -83 0
-131 -47 0
131 -34 54 -38 100 -94 -50 -36 -99 83 47 0
-132 -4 0
-132 -17 0
-132 58 0
-132 -62 0
-132 -97 0
-132 -40 0
-132 91 0
-132 -29 0
-132 12 0
-132 -99 0
132 4 17 -58 62 97 40 -91 29 -12 99 0
-133 45 0
-133 18 0
-133 -13 0
-133 -21 0
-133 -75 0
-133 -41 0
-133 -78 0
-133 43 0
-133 31 0
-133 -20 0
133 -45 -18 13 21 75 41 78 -43 -31 20 0
-134 -89 0
-134 11 0
-134 -84 0
-134 52 0
-134 12 0
-134 57 0
-134 -85 0
-134 -94 0
-134 28 0
-134 -34 0
134 89 -11 84 -52 -12 -57 85 94 -28 34 0
-135 -37 0
-135 -8 0
-135 97 0
-135 -44 0
-135 58 0
-135 60 0
-135 65 0
-135 -7 0
-135 -88 0
-135 10 0
135 37 8 -97 44 -58 -60 -65 7 88 -10 0
-136 -10 0
-136 -28 0
-136 20 0
-136 91 0
-136 14 0
-136 -26 0
-136 63 0
-136 -25 0
-136 7 0
-136 70 0
136 10 28 -20 -91 -14 26 -63 25 -7 -70 0
-137 31 0
-137 23 0
-137 86 0
-137 32 0
-137 -18 0
-137 -55 0
-137 69 0
-137 81 0
-137 -24 0
-137 76 0
137 -31 -23 -86 -32 18 55 -69 -81 24 -76 0
-138 -15 0
-138 100 0
-138 87 0
-138 -8 0
-138 -72 0
-138 -68 0
-138 78 0
-138 -67 0
-138 -60 0
-138 30 0
138 15 -100 -87 8 72 68 -78 67 60 -30 0
-139 -40 0
-139 -99 0
-139 78 0
-139 -44 0
-139 -24 0
-139 10 0
-139 -83 0
-139 14 0
-139 100 0
-139 -80 0
139 40 99 -78 44 24 -10 83 -14 -100 80 0
-140 94 0
-140 -33 0
-140 23 0
-140 7 0
-140 78 0
-140 88 0
-140 53 0
-140 -16 0
-140 57 0
-140 65 0
140 -94 33 -23 -7 -78 -88 -53 16 -57 -65 0
131 132 133 134 135 136 137 138 139 140 0
-141 81 0
-141 -83 0
-141 23 0
-141 -49 0
-141 -34 0
-141 71 0
-141 78 0
-141 -61 0
-141 -29 0
-141 65 0
141 -81 83 -23 49 34 -71 -78 61 29 -65 0
-142 34 0
-142 -88 0
-142 -94 0
-142 59 0
-142 -100 0
-142 -69 0
-142 20 0
-142 73 0
-142 11 0
-142 -25 0
142 -34 88 94 -59 100 69 -20 -73 -11 25 0
-143 -73 0
-143 3 0
-143 7 0
-143 68 0
-143 75 0
-143 79 0
-143 15 0
-143 -31 0
-143 -100 0
-143 -77 0
143 73 -3 -7 -68 -75 -79 -15 31 100 77 0
-144 84 0
-144 -89 0
-144 -3 0
-144 8 0
-144 -45 0
-144 96 0
-144 17 0
-144 -40 0
-144 27 0
-144 42 0
144 -84 89 3 -8 45 -96 -17 40 -27 -42 0
-145 100 0
-145 80 0
-145 49 0
-145 -99 0
-145 92 0
-145 43 0
-145 -42 0
-145 -91 0
-145 30 0
-145 -48 0
145 -100 -80 -49 99 -92 -43 42 91 -30 48 0
-146 63 0
-146 82 0
-146 -18 0
-146 -99 0
-146 -31 0
-146 25 0
-146 35 0
-146 -39 0
-146 7 0
-146 12 0
146 -63 -82 18 99 31 -25 -35 39 -7 -12 0
-147 67 0
-147 -3 0
-147 -82 0
-147 79 0
-147 -45 0
-147 95 0
-147 19 0
-147 71 0
-147 -93 0
-147 39 0
147 -67 3 82 -79 45 -95 -19 -71 93 -39 0
-148 83 0
-148 63 0
-148 -36 0
-148 60 0
-148 -18 0
-148 37 0
-148 14 0
-148 -87 0
-148 -39 0
-148 -29 0
148 -83 -63 36 -60 18 -37 -14 87 39 29 0
-149 13 0
-149 11 0
-149 46 0
-149 50 0
-149 -33 0
-149 -36 0
-149 23 0
-149 -70 0
-149 -71 0
-149 -20 0
149 -13 -11 -46 -50 33 36 -23 70 71 20 0
-150 -25 0
-150 -76 0
-150 16 0
-150 43 0
-150 78 0
-150 -85 0
-150 61 0
-150 -80 0
-150 -15 0
-150 81 0
150 25 76 -16 -43 -78 85 -61 80 15 -81 0
141 142 143 144 145 146 147 148 149 150 0
-151 -17 0
-151 -48 0
-151 -35 0
-151 -42 0
-151 63 0
-151 23 0
-151 -40 0
-151 64 0
-151 -1 0
-151 -16 0
151 17 48 35 42 -63 -23 40 -64 1 16 0
-152 53 0
-152 51 0
-152 7 0
-152 90 0
-152 -12 0
-152 83 0
-152 -19 0
-152 38 0
-152 67 0
-152 -72 0
152 -53 -51 -7 -90 12 -83 19 -38 -67 72 0
-153 -32 0
-153 72 0
-153 31 0
-153 48 0
-153 -76 0
-153 95 0
-153 -55 0
-153 65 0
-153 -67 0
-153 -71 0
153 32 -72 -31 -48 76 -95 55 -65 67 71 0
-154 -64 0
-154 -69 0
-154 -23 0
-154 -74 0
-154 -4 0
-154 -28 0
-154 44 0
-154 -49 0
-154 1 0
-154 2 0
154 64 69 23 74 4 28 -44 49 -1 -2 0
-155 -95 0
-155 86 0
-155 20 0
-155 82 0
-155 -96 0
-155 -53 0
-155 8 0
-155 99 0
-155 85 0
-155 100 0
155 95 -86 -20 -82 96 53 -8 -99 -85 -100 0
-156 -30 0
-156 -28 0
-156 79 0
-156 -9 0
-156 64 0
-156 -5 0
-156 17 0
-156 -65 0
-156 16 0
-156 91 0
156 30 28 -79 9 -64 5 -17 65 -16 -91 0
-157 -70 0
-157 -4 0
-157 91 0
-157 -89 0
-157 -34 0
-157 73 0
-157 -32 0
-157 61 0
-157 53 0
-157 -37 0
157 70 4 -91 89 34 -73 32 -61 -53 37 0
-158 -40 0
-158 35 0
-158 -41 0
-158 -56 0
-158 -26 0
-158 30 0
-158 9 0
-158 -17 0
-158 10 0
-158 75 0
158 40 -35 41 56 26 -30 -9 17 -10 -75 0
-159 40 0
-159 21 0
-159 99 0
-159 83 0
-159 10 0
-159 56 0
-159 3 0
-159 26 0
-159 84 0
-159 68 0
159 -40 -21 -99 -83 -10 -56 -3 -26 -84 -68 0
-160 67 0
-160 88 0
-160 34 0
-160 -47 0
-160 65 0
-160 -41 0
-160 -93 0
-160 82 0
-160 63 0
-160 14 0
160 -67 -88 -34 47 -65 41 93 -82 -63 -14 0
151 152 153 154 155 156 157 158 159 160 0
-161 -55 0
-161 -12 0
-161 64 0
-161 99 0
-161 -68 0
-161 -25 0
-161 69 0
-161 13 0
-161 65 0
-161 93 0
161 55 12 -64 -99 68 25 -69 -13 -65 -93 0
-162 20 0
-162 -98 0
-162 -5 0
-162 -54 0
-162 74 0
-162 -35 0
-162 -94 0
-162 -45 0
-162 3 0
-162 -56 0
162 -20 98 5 54 -74 35 94 45 -3 56 0
-163 -41 0
-163 -100 0
-163 -6 0
-163 -14 0
-163 -70 0
-163 84 0
-163 54 0
-163 -80 0
-163 85 0
-163 -62 0
163 41 100 6 14 70 -84 -54 80 -85 62 0
-164 9 0
-164 -84 0
-164 -86 0
-164 55 0
-164 72 0
-164 68 0
-164 26 0
-164 13 0
-164 66 0
-164 -51 0
164 -9 84 86 -55 -72 -68 -26 -13 -66 51 0
-165 17 0
-165 -93 0
-165 24 0
-165 -87 0
-165 -5 0
-165 92 0
-165 -44 0
-165 -78 0
-165 -85 0
-165 25 0
165 -17 93 -24 87 5 -92 44 78 85 -25 0
-166 -77 0
-166 -51 0
-166 57 0
-166 -95 0
-166 74 0
-166 -28 0
-166 10 0
-166 29 0
-166 -76 0
-166 71 0
166 77 51 -57 95 -74 28 -10 -29 76 -71 0
-167 12 0
-167 67 0
-167 26 0
-167 -2 0
-167 57 0
-167 -87 0
-167 -4 0
-167 77 0
-167 -53 0
-167 95 0
167 -12 -67 -26 2 -57 87 4 -77 53 -95 0
-168 78 0
-168 -64 0
-168 -9 0
-168 23 0
-168 59 0
-168 -92 0
-168 -90 0
-168 53 0
-168 41 0
-168 97 0
168 -78 64 9 -23 -59 92 90 -53 -41 -97 0
-169 -45 0
-169 2 0
-169 -73 0
-169 -30 0
-169 18 0
-169 44 0
-169 21 0
-169 -41 0
-169 3 0
-169 -47 0
169 45 -2 73 30 -18 -44 -21 41 -3 47 0
-170 -52 0
-170 -10 0
-170 -55 0
-170 -34 0
-170 78 0
-170 1 0
-170 -13 0
-170 53 0
-170 90 0
-170 -85 0
170 52 10 55 34 -78 -1 13 -53 -90 85 0
161 162 163 164 165 166 167 168 169 170 0
-171 46 0
-171 37 0
-171 41 0
-171 -36 0
-171 -49 0
-171 52 0
-171 -63 0
-171 -20 0
-171 85 0
-171 100 0
171 -46 -37 -41 36 49 -52 63 20 -85 -100 0
-172 46 0
-172 -61 0
-172 8 0
-172 32 0
-172 -84 0
-172 -79 0
-172 24 0
-172 67 0
-172 74 0
-172 15 0
172 -46 61 -8 -32 84 79 -24 -67 -74 -15 0
-173 88 0
-173 70 0
-173 -9 0
-173 -11 0
-173 -72 0
-173 -86 0
-173 53 0
-173 -7 0
-173 65 0
-173 -8 0
173 -88 -70 9 11 72 86 -53 7 -65 8 0
-174 -6 0
-174 -60 0
-174 20 0
-174 -43 0
-174 22 0
-174 -69 0
-174 58 0
-174 42 0
-174 40 0
-174 -91 0
174 6 60 -20 43 -22 69 -58 -42 -40 91 0
-175 70 0
-175 -61 0
-175 -13 0
-175 -2 0
-175 -19 0
-175 97 0
-175 78 0
-175 24 0
-175 -93 0
-175 85 0
175 -70 61 13 2 19 -97 -78 -24 93 -85 0
-176 18 0
-176 2 0
-176 53 0
-176 -1 0
-176 39 0
-176 92 0
-176 51 0
-176 62 0
-176 -14 0
-176 28 0
176 -18 -2 -53 1 -39 -92 -51 -62 14 -28 0
-177 13 0
-177 -83 0
-177 54 0
-177 15 0
-177 51 0
-177 7 0
-177 18 0
-177 -92 0
-177 82 0
-177 -14 0
177 -13 83 -54 -15 -51 -7 -18 92 -82 14 0
-178 83 0
-178 98 0
-178 -59 0
-178 -55 0
-178 -9 0
-178 23 0
-178 79 0
-178 37 0
-178 -31 0
-178 -89 0
178 -83 -98 59 55 9 -23 -79 -37 31 89 0
-179 -54 0
-179 95 0
-179 -38 0
-179 98 0
-179 -78 0
-179 -90 0
-179 -96 0
-179 37 0
-179 -55 0
-179 75 0
179 54 -95 38 -98 78 90 96 -37 55 -75 0
-180 42 0
-180 -32 0
-180 98 0
-180 -51 0
-180 -72 0
-180 38 0
-180 -79 0
-180 -33 0
-180 61 0
-180 -75 0
180 -42 32 -98 51 72 -38 79 33 -61 75 0
171 172 173 174 175 176 177 178 179 180 0
-181 2 0
-181 -39 0
-181 -41 0
-181 -42 0
-181 -11 0
-181 26 0
-181 16 0
-181 77 0
-181 58 0
-181 98 0
181 -2 39 41 42 11 -26 -16 -77 -58 -98 0
-182 -80 0
-182 -19 0
-182 -45 0
-182 -24 0
-182 -36 0
-182 55 0
-182 4 0
-182 -48 0
-182 69 0
-182 -58 0
182 80 19 45 24 36 -55 -4 48 -69 58 0
-183 66 0
-183 53 0
-183 -68 0
-183 -29 0
-183 36 0
-183 4 0
-183 -33 0
-183 -11 0
-183 -7 0
-183 89 0
183 -66 -53 68 29 -36 -4 33 11 7 -89 0
-184 32 0
-184 2 0
-184 -92 0
-184 24 0
-184 -4 0
-184 -36 0
-184 75 0
-184 39 0
-184 -6 0
-184 -91 0
184 -32 -2 92 -24 4 36 -75 -39 6 91 0
-185 -34 0
-185 -78 0
-185 5 0
-185 -35 0
-185 -33 0
-185 69 0
-185 -77 0
-185 12 0
-185 -6 0
-185 -81 0
185 34 78 -5 35 33 -69 77 -12 6 81 0
-186 -45 0
-186 38 0
-186 -40 0
-186 88 0
-186 -34 0
-186 -55 0
-186 -33 0
-186 -76 0
-186 35 0
-186 93 0
186 45 -38 40 -88 34 55 33 76 -35 -93 0
-187 45 0
-187 1 0
-187 -41 0
-187 46 0
-187 18 0
-187 -9 0
-187 -66 0
-187 -34 0
-187 20 0
-187 93 0
187 -45 -1 41 -46 -18 9 66 34 -20 -93 0
-188 71 0
-188 32 0
-188 60 0
-188 -79 0
-188 28 0
-188 90 0
-188 -14 0
-188 51 0
-188 -12 0
-188 20 0
188 -71 -32 -60 79 -28 -90 14 -51 12 -20 0
-189 -80 0
-189 -40 0
-189 -60 0
-189 -86 0
-189 -51 0
-189 -49 0
-189 54 0
-189 8 0
-189 23 0
-189 -94 0
189 80 40 60 86 51 49 -54 -8 -23 94 0
-190 96 0
-190 -10 0
-190 -80 0
-190 -7 0
-190 -68 0
-190 -2 0
-190 89 0
-190 -93 0
-190 74 0
-190 15 0
190 -96 10 80 7 68 2 -89 93 -74 -15 0
181 182 183 184 185 186 187 188 189 190 0
-191 -24 0
-191 -79 0
-191 85 0
-191 88 0
-191 30 0
-191 40 0
-191 -17 0
-191 -28 0
-191 -71 0
-191 -19 0
191 24 79 -85 -88 -30 -40 17 28 71 19 0
-192 -14 0
-192 -89 0
-192 -57 0
-192 78 0
-192 -81 0
-192 18 0
-192 75 0
-192 33 0
-192 -61 0
-192 76 0
192 14 89 57 -78 81 -18 -75 -33 61 -76 0
-193 9 0
-193 -72 0
-193 22 0
-193 95 0
-193 41 0
-193 -73 0
-193 63 0
-193 -83 0
-193 6 0
-193 48 0
193 -9 72 -22 -95 -41 73 -63 83 -6 -48 0
-194 -9 0
-194 -90 0
-194 -38 0
-194 48 0
-194 28 0
-194 -43 0
-194 -62 0
-194 77 0
-194 -74 0
-194 30 0
194 9 90 38 -48 -28 43 62 -77 74 -30 0
-195 -58 0
-195 94 0
-195 9 0
-195 79 0
-195 -11 0
-195 78 0
-195 -15 0
-195 -100 0
-195 -90 0
-195 -59 0
195 58 -94 -9 -79 11 -78 15 100 90 59 0
-196 -61 0
-196 64 0
-196 -99 0
-196 60 0
-196 11 0
-196 -20 0
-196 93 0
-196 69 0
-196 -55 0
-196 80 0
196 61 -64 99 -60 -11 20 -93 -69 55 -80 0
-197 -54 0
-197 -34 0
-197 7 0
-197 -8 0
-197 13 0
-197 -59 0
-197 21 0
-197 57 0
-197 -86 0
-197 -52 0
197 54 34 -7 8 -13 59 -21 -57 86 52 0
-198 -79 0
-198 -63 0
-198 30 0
-198 -38 0
-198 -34 0
-198 -14 0
-198 -77 0
-198 6 0
-198 -24 0
-198 18 0
198 79 63 -30 38 34 14 77 -6 24 -18 0
-199 9 0
-199 23 0
-199 -68 0
-199 92 0
-199 -45 0
-199 -21 0
-199 70 0
-199 49 0
-199 -13 0
-199 -58 0
199 -9 -23 68 -92 45 21 -70 -49 13 58 0
-200 -33 0
-200 56 0
-200 -98 0
-200 -90 0
-200 -7 0
-200 -34 0
-200 12 0
-200 60 0
-200 73 0
-200 31 0
200 33 -56 98 90 7 34 -12 -60 -73 -31 0
191 192 193 194 195 196 197 198 199 200 0
